src/model_10_4_2_1_2.lp
Minimize
	 obj: y_0+y_1+y_2
Subject To
	 c_obj_0_0: x_0+x_1+x_2=5
	 c_obj_0_1: x_3+x_4+x_5=3
	 c_obj_0_2: x_6+x_7+x_8=1
	 c_obj_0_3: x_9+x_10+x_11=1
	 c_obj_1_0: 29 x_0+15 x_3+5 x_6+58 x_9-100 y_0<= 0
	 c_obj_1_1: 29 x_1+15 x_4+5 x_7+58 x_10-100 y_1<= 0
	 c_obj_1_2: 29 x_2+15 x_5+5 x_8+58 x_11-100 y_2<= 0
	 c_obj_2_0: x_0+x_1+x_2=5
	 c_obj_2_1: x_3+x_4+x_5=3
	 c_obj_2_2: x_6+x_7+x_8=1
	 c_obj_2_3: x_9+x_10+x_11=1
	 c_obj_3_0: 29 x_0+15 x_3+5 x_6+58 x_9-100 y_0<= 0
	 c_obj_3_1: 29 x_1+15 x_4+5 x_7+58 x_10-100 y_1<= 0
	 c_obj_3_2: 29 x_2+15 x_5+5 x_8+58 x_11-100 y_2<= 0
	 c_obj_5_0: x_0-5 z_0<= 0
	 c_obj_5_1: x_1-5 z_1<= 0
	 c_obj_5_2: x_2-5 z_2<= 0
	 c_obj_5_3: x_3-3 z_3<= 0
	 c_obj_5_4: x_4-3 z_4<= 0
	 c_obj_5_5: x_5-3 z_5<= 0
	 c_obj_5_6: x_6-1 z_6<= 0
	 c_obj_5_7: x_7-1 z_7<= 0
	 c_obj_5_8: x_8-1 z_8<= 0
	 c_obj_5_9: x_9-1 z_9<= 0
	 c_obj_5_10: x_10-1 z_10<= 0
	 c_obj_5_11: x_11-1 z_11<= 0
Bounds
	x_0 >= 0
	x_1 >= 0
	x_2 >= 0
	x_3 >= 0
	x_4 >= 0
	x_5 >= 0
	x_6 >= 0
	x_7 >= 0
	x_8 >= 0
	x_9 >= 0
	x_10 >= 0
	x_11 >= 0
Integer
	x_0
	x_1
	x_2
	x_3
	x_4
	x_5
	x_6
	x_7
	x_8
	x_9
	x_10
	x_11
Binary
	y_0
	y_1
	y_2
	z_0
	z_1
	z_2
	z_3
	z_4
	z_5
	z_6
	z_7
	z_8
	z_9
	z_10
	z_11
End