src/model_10_4_2_1_2.sol
Problem:    
Rows:       26
Columns:    27 (27 integer, 15 binary)
Non-zeros:  78
Status:     INTEGER OPTIMAL
Objective:  obj = 3 (MINimum)

   No.   Row name        Activity     Lower bound   Upper bound
------ ------------    ------------- ------------- -------------
     1 c_obj_0_0                   5             5             = 
     2 c_obj_0_1                   3             3             = 
     3 c_obj_0_2                   1             1             = 
     4 c_obj_0_3                   1             1             = 
     5 c_obj_1_0                 -22                           0 
     6 c_obj_1_1                 -12                           0 
     7 c_obj_1_2                 -13                           0 
     8 c_obj_2_0                   5             5             = 
     9 c_obj_2_1                   3             3             = 
    10 c_obj_2_2                   1             1             = 
    11 c_obj_2_3                   1             1             = 
    12 c_obj_3_0                 -22                           0 
    13 c_obj_3_1                 -12                           0 
    14 c_obj_3_2                 -13                           0 
    15 c_obj_5_0                   0                           0 
    16 c_obj_5_1                  -3                           0 
    17 c_obj_5_2                  -2                           0 
    18 c_obj_5_3                  -2                           0 
    19 c_obj_5_4                  -1                           0 
    20 c_obj_5_5                  -3                           0 
    21 c_obj_5_6                   0                           0 
    22 c_obj_5_7                   0                           0 
    23 c_obj_5_8                   0                           0 
    24 c_obj_5_9                   0                           0 
    25 c_obj_5_10                  0                           0 
    26 c_obj_5_11                  0                           0 

   No. Column name       Activity     Lower bound   Upper bound
------ ------------    ------------- ------------- -------------
     1 y_0          *              1             0             1 
     2 y_1          *              1             0             1 
     3 y_2          *              1             0             1 
     4 x_0          *              0             0               
     5 x_1          *              2             0               
     6 x_2          *              3             0               
     7 x_3          *              1             0               
     8 x_4          *              2             0               
     9 x_5          *              0             0               
    10 x_6          *              1             0               
    11 x_7          *              0             0               
    12 x_8          *              0             0               
    13 x_9          *              1             0               
    14 x_10         *              0             0               
    15 x_11         *              0             0               
    16 z_0          *              0             0             1 
    17 z_1          *              1             0             1 
    18 z_2          *              1             0             1 
    19 z_3          *              1             0             1 
    20 z_4          *              1             0             1 
    21 z_5          *              1             0             1 
    22 z_6          *              1             0             1 
    23 z_7          *              0             0             1 
    24 z_8          *              0             0             1 
    25 z_9          *              1             0             1 
    26 z_10         *              0             0             1 
    27 z_11         *              0             0             1 

Integer feasibility conditions:

KKT.PE: max.abs.err = 0.00e+00 on row 0
        max.rel.err = 0.00e+00 on row 0
        High quality

KKT.PB: max.abs.err = 0.00e+00 on row 0
        max.rel.err = 0.00e+00 on row 0
        High quality

End of output
